NAME : Synth-n10-k3-s0
COMMENT : Synthetic small hard CVRP instance for quantum simulation
TYPE : CVRP
DIMENSION : 10
EDGE_WEIGHT_TYPE : EUC_2D
CAPACITY : 14
NODE_COORD_SECTION
1 50.000000 50.000000
2 52.669752 68.771736
3 41.029480 73.545555
4 15.456722 59.979775
5 33.575793 45.833706
6 36.480987 28.893249
7 50.320132 19.489226
8 62.634497 39.970894
9 74.586516 44.548623
10 76.059884 72.787057
DEMAND_SECTION
1 0
2 4
3 6
4 5
5 2
6 2
7 4
8 2
9 6
10 4
DEPOT_SECTION
1
-1
EOF
